9
0 125 135 180 330 260 135 260 300
125 0 115 205 295 215 190 315 340
135 115 0 95 200 130 130 230 240
180 205 95 0 195 165 75 120 135
330 295 200 195 0 105 260 220 175
260 215 130 165 105 0 235 265 225
135 190 130 75 260 235 0 135 170
260 315 215 120 220 265 135 0 60
300 340 240 135 175 225 170 60 0